50
    1   355   345
    2   309   299
    3   703   693
    4   806   796
    5   477   467
    6   439   429
    7   110   100
    8    75    65
    9   151   141
   10   633   623
   11   301   291
   12   712   702
   13   680   670
   14  1009   999
   15   791   781
   16   411   401
   17    56    46
   18   206   196
   19    69    59
   20   914   904
   21   367   357
   22   214   204
   23   110   100
   24   730   720
   25   503   493
   26   418   408
   27   671   661
   28   337   327
   29   216   206
   30   158   148
   31   264   254
   32   627   617
   33   320   310
   34   621   611
   35   435   425
   36    25    15
   37   268   258
   38   330   320
   39   417   407
   40   689   679
   41   624   614
   42   801   791
   43   323   313
   44   614   604
   45   911   901
   46   811   801
   47   506   496
   48   903   893
   49   360   350
   50   256   246
15024
